0 0 0 0
0 1 0 0
0 2 1 0
0 3 1 5
0 4 2 11
0 5 1 5
0 6 1 5
0 7 0 17
0 8 0 12
0 9 0 13
0 10 0 14
0 11 0 20
0 12 0 9
0 13 0 13
0 14 0 13
0 15 1 17
0 16 2 5
0 17 0 20
0 18 0 23
0 19 0 21
0 20 0 24
0 21 1 18
0 22 0 25
0 23 0 28
0 24 1 28
0 25 0 21
0 26 1 25
0 27 0 22
0 28 2 27
0 29 1 32
0 30 2 25
0 31 0 33
